nbGenes = 10;
preference = [[0 71 1 23 3 13 69 15 44 55 ]
[29 0 31 6 73 7 10 7 55 1 ]
[99 69 0 1 41 95 68 49 87 30 ]
[77 94 99 0 67 70 92 66 49 18 ]
[97 27 59 33 0 47 23 54 13 40 ]
[87 93 5 30 53 0 3 48 5 60 ]
[31 90 32 8 77 97 0 18 39 1 ]
[85 93 51 34 46 52 82 0 40 3 ]
[56 45 13 51 87 95 61 60 0 35 ]
[45 99 70 82 60 40 99 97 65 0 ]
];
